width,height
10,25
3,4
7,3
1,20
6,13
1,6
8,22
7,11
8,10
6,3
6,1
2,22
3,18
6,8
3,5
6,5
3,6
1,22
7,14
5,25
7,3
3,10
10,8
3,22
3,9
8,3
4,5
9,22
3,1
7,16
6,20
6,2
9,11
9,6
4,16
3,8
5,25
6,13
3,24
10,4
9,2
5,23
10,21
8,12
3,21
3,18
1,10
3,21
3,12
7,18
4,14
9,19
5,18
1,7
5,16
9,18
8,1
8,24
9,1
4,14
6,16
4,17
5,16
4,16
8,14
3,3
2,8
8,23
2,7
5,20
2,21
2,18
6,23
1,8
7,10
4,23
2,12
5,9
9,15
4,15
4,3
1,11
3,11
5,17
7,1
8,16
10,13
2,24
2,1
3,9
7,4
1,16
9,16
1,22
9,25
8,3
1,22
7,1
10,5
1,9
5,23
